(declare-const delta_i Int)
(declare-const delta_j Int)
(declare-const delta_k Int)
(assert (exists
         ((|i'?1| Int) (|k'?2| Int) (|S1,0?3| Real) (|j'?4| Int)
            (KSUM1?5 Int) (|K1,0?6| Int) (K?7 Int) (|j'?8| Int) (|k'?9| Int)
            (k?10 Int) (j?11 Int) (cym?12 Int) (cxm?13 Int) (cz?14 Int)
            (i?15 Int))
         (and (<= (- i?15) 0) (<= (+ (- cz?14) i?15) 0) (<= (- K?7) 0)
                (<= (- |K1,0?6|) 0) (= (+ |K1,0?6| (- K?7)) 0)
                (<= (+ KSUM1?5 (- K?7)) 0)
                (= (+ (- |S1,0?3|) |j'?4| (- |K1,0?6|)) 0)
                (= (+ (- KSUM1?5) |K1,0?6|) 0) (= |S1,0?3| 0)
                (or (and (= K?7 0) (= (+ (- |k'?2|) k?10) 0) (= (- |j'?4|) 0))
                      (and (<= (+ (- K?7) 1) 0) (<= (- cym?12) 0)
                             (<= (+ (- cym?12) |j'?4| -1) 0)
                             (<= (+ cxm?13 (- |k'?2|) 1) 0) (<= (- |k'?2|) 0)
                             (<= (+ (- |j'?4|) 1) 0)))
                (= (+ |j'?4| (- K?7)) 0) (<= (- K?7) 0) (<= (- |j'?4|) 0)
                (< (+ cym?12 (- |j'?4|)) 0) (= (+ |k'?9| (- |k'?2|)) 0)
                (= (+ |j'?8| (- |j'?4|)) 0) (= (+ |i'?1| (- i?15) -1) 0)
                (= delta_i (+ |i'?1| (- i?15)))
                (= delta_j (+ |j'?8| (- j?11)))
                (= delta_k (+ |k'?9| (- k?10))))))
(check-sat)
